\ENCODING=ISO-8859-1
\Problem name: 

Minimize
 obj: 837.23969910181 y_0_1 + 242.162942118453 y_0_2 + 716.655227501356 y_0_3
      + 617.727057797768 y_0_4 + 453.323104063388 y_1_2 + 18.088487140175 y_1_3
      + 541.890948174051 y_1_4 + 763.471608456631 y_2_1
      + 418.330473641261 y_2_3 + 779.019381168909 y_2_4 + 976.02486828862 y_3_1
      + 236.982567196677 y_3_2 + 368.275889905322 y_3_4
      + 623.973941121901 y_4_1 + 207.254230281121 y_4_2
      + 619.341512281696 y_4_3
Subject To
 c1:  x_0_1 - x_1_2 - x_1_3 - x_1_4 + x_2_1 + x_3_1 + x_4_1  = 1
 c2:  x_0_2 + x_1_2 - x_2_1 - x_2_3 - x_2_4 + x_3_2 + x_4_2  = 1
 c3:  x_0_3 + x_1_3 + x_2_3 - x_3_1 - x_3_2 - x_3_4 + x_4_3  = 1
 c4:  x_0_4 + x_1_4 + x_2_4 + x_3_4 - x_4_1 - x_4_2 - x_4_3  = 1
 c5:  y_0_1 + y_0_2 + y_0_3 + y_0_4  = 1
 c6:  y_1_2 + y_1_3 + y_1_4  = 1
 c7:  y_2_1 + y_2_3 + y_2_4  = 1
 c8:  y_3_1 + y_3_2 + y_3_4  = 1
 c9:  y_4_1 + y_4_2 + y_4_3  = 1
 c10: y_0_1 + y_2_1 + y_3_1 + y_4_1  = 1
 c11: y_0_2 + y_1_2 + y_3_2 + y_4_2  = 1
 c12: y_0_3 + y_1_3 + y_2_3 + y_4_3  = 1
 c13: y_0_4 + y_1_4 + y_2_4 + y_3_4  = 1
 c14: x_0_1 - 4 y_0_1 <= 0
 c15: x_0_2 - 4 y_0_2 <= 0
 c16: x_0_3 - 4 y_0_3 <= 0
 c17: x_0_4 - 4 y_0_4 <= 0
 c18: x_1_2 - 4 y_1_2 <= 0
 c19: x_1_3 - 4 y_1_3 <= 0
 c20: x_1_4 - 4 y_1_4 <= 0
 c21: x_2_1 - 4 y_2_1 <= 0
 c22: x_2_3 - 4 y_2_3 <= 0
 c23: x_2_4 - 4 y_2_4 <= 0
 c24: x_3_1 - 4 y_3_1 <= 0
 c25: x_3_2 - 4 y_3_2 <= 0
 c26: x_3_4 - 4 y_3_4 <= 0
 c27: x_4_1 - 4 y_4_1 <= 0
 c28: x_4_2 - 4 y_4_2 <= 0
 c29: x_4_3 - 4 y_4_3 <= 0
Bounds
 0 <= x_0_1 <= 5
 0 <= x_0_2 <= 5
 0 <= x_0_3 <= 5
 0 <= x_0_4 <= 5
 0 <= x_1_2 <= 5
 0 <= x_1_3 <= 5
 0 <= x_1_4 <= 5
 0 <= x_2_1 <= 5
 0 <= x_2_3 <= 5
 0 <= x_2_4 <= 5
 0 <= x_3_1 <= 5
 0 <= x_3_2 <= 5
 0 <= x_3_4 <= 5
 0 <= x_4_1 <= 5
 0 <= x_4_2 <= 5
 0 <= x_4_3 <= 5
 0 <= y_0_1 <= 1
 0 <= y_0_2 <= 1
 0 <= y_0_3 <= 1
 0 <= y_0_4 <= 1
 0 <= y_1_2 <= 1
 0 <= y_1_3 <= 1
 0 <= y_1_4 <= 1
 0 <= y_2_1 <= 1
 0 <= y_2_3 <= 1
 0 <= y_2_4 <= 1
 0 <= y_3_1 <= 1
 0 <= y_3_2 <= 1
 0 <= y_3_4 <= 1
 0 <= y_4_1 <= 1
 0 <= y_4_2 <= 1
 0 <= y_4_3 <= 1
Binaries
 y_0_1  y_0_2  y_0_3  y_0_4  y_1_2  y_1_3  y_1_4  y_2_1  y_2_3  y_2_4  y_3_1 
 y_3_2  y_3_4  y_4_1  y_4_2  y_4_3 
End
